4 5
99 99 95 66 
0 86 76 104 94 23 13 41 31 96 41 83 21 43 32 93 48 3 22 27 2 3
1 32 22 109 99 85 75 70 60 90 34 96 96 30 20 75 89 88 53 74 84 1
2 34 24 69 59 103 93 46 36 7 56 40 16 95 42 22 95 44 24 89 78 4
3 109 99 25 15 34 24 50 40 99 63 26 21 100 37 62 93 58 66 61 30 1
4 56 46 35 25 105 95 76 66 62 50 84 13 52 62 87 6 60 54 73 81 4
